50 20 763
20 7 846
7 37 517
37 5 467
5 13 723
13 51 644
51 40 1042
40 43 1279
43 3 1096
3 6 385
6 28 404
28 55 487
55 26 397
26 54 967
54 34 401
34 47 702
47 30 944
30 4 380
4 18 606
18 12 768
12 14 816
14 2 433
2 45 787
45 42 1302
42 33 4807
33 1 7621
1 27 4123
27 31 4460
31 25 299
25 11 545
11 52 1009
52 16 739
16 15 556
15 36 679
36 46 402
46 39 214
39 29 1087
29 22 544
22 10 117
10 9 803
9 53 1071
53 23 388
23 21 176
21 17 638
17 48 415
48 49 761
49 19 934
19 41 1369
41 32 362
32 44 676
44 8 383
8 38 368
38 35 988
35 24 296
24 50 868
